letting n_nurses=25
letting n_days=7
letting n_shift_types=4
letting max_covers=9
letting t_covers=87
letting covers=[6,8,3,0,8,6,3,0,6,5,3,0,1,3,2,0,2,2,1,0,9,7,4,0,3,3,2,0]
letting prefes=[4,4,4,4,4,4,4,4,4,1,4,1,1,1,1,1,4,1,4,4,4,1,4,4,4,4,4,4,1,4,4,1,4,4,1,1,4,4,4,4,4,3,4,4,1,1,1,1,1,1,1,1,4,4,1,1,1,4,4,1,1,1,1,1,1,1,1,1,4,1,4,4,4,1,1,1,4,1,1,1,1,1,1,1,1,4,4,1,4,1,1,1,4,4,4,4,4,1,4,4,4,1,4,4,4,1,4,4,4,1,1,1,4,4,4,4,4,1,4,4,4,1,4,1,4,1,4,4,4,4,4,4,4,4,4,4,4,1,4,4,1,4,4,1,4,1,1,1,4,1,1,1,4,3,4,4,1,1,1,1,1,1,1,1,4,1,1,1,1,4,4,1,4,1,1,1,4,1,4,1,4,1,4,4,4,1,4,4,4,1,4,4,4,1,1,1,1,1,4,1,1,1,1,1,1,1,4,1,1,1,1,1,4,1,4,4,4,1,4,4,1,1,1,1,1,4,4,1,4,1,1,1,4,4,4,4,4,1,4,4,1,1,4,4,1,1,4,4,4,1,1,1,1,1,1,1,4,1,1,1,4,4,4,4,4,1,4,4,1,4,1,1,1,4,1,1,4,1,1,1,1,1,1,1,4,1,1,1,1,1,4,1,1,1,1,1,4,1,4,4,4,1,4,4,4,1,1,1,4,4,4,4,4,1,4,4,4,1,1,1,4,3,4,4,4,1,4,4,4,1,4,4,4,1,4,4,1,4,1,1,1,1,1,1,4,4,4,4,4,1,4,4,4,1,1,1,4,1,1,1,1,1,1,1,1,4,4,1,4,1,1,1,4,1,4,1,4,3,4,4,4,1,4,4,4,1,4,4,4,1,1,1,1,1,4,1,4,4,1,1,4,1,4,1,4,3,4,4,4,1,4,4,4,1,4,4,4,4,1,1,1,4,1,1,4,1,1,1,1,1,4,1,1,1,1,1,4,1,4,4,4,1,4,4,4,1,1,1,4,1,1,4,4,1,4,4,4,1,1,1,4,1,4,4,4,4,4,4,4,4,4,4,4,1,4,4,1,4,4,1,4,4,1,1,4,1,1,1,4,1,4,4,4,1,4,4,4,1,4,4,4,4,1,1,1,4,4,1,4,1,1,1,4,1,4,1,4,1,4,4,4,1,4,4,4,1,4,4,4,1,1,1,1,4,4,1,4,4,1,1,4,1,4,1,4,1,4,4,4,1,4,4,4,1,4,4,4,4,1,1,1,4,4,1,1,1,1,1,4,1,4,1,4,1,4,4,4,4,4,4,4,4,4,4,1,1,1,1,1,4,4,1,4,1,1,1,4,1,4,1,4,1,4,4,4,4,4,4,4,4,4,4,4,1,1,1,1,4,4,1,1,1,1,1,4,1,4,1,4,1,4,4,4,1,4,4,4,1,4,4,1,1,1,1,1,4,4,1,4,1,1,1,4,1,4,1,4,1,4,4,1,1,4,4,1,1,4,4,4,1,1,1,4,4,4,4,4,1,4,4,1,1,4,1,1,1,1,1,4,1,4,4,4,1,4,4,4,1,4,4]
letting ub =  255
